100
120 120
1 84 693
2 82 1000
3 81 775
4 81 197
5 80 510
6 80 977
7 79 388
8 78 37
9 77 58
10 76 385
11 76 704
12 76 113
13 73 247
14 73 764
15 71 834
16 68 478
17 68 82
18 68 735
19 67 660
20 66 666
21 64 680
22 64 440
23 64 297
24 63 526
25 62 629
26 62 513
27 61 487
28 60 162
29 60 569
30 60 777
31 59 346
32 59 778
33 58 858
34 58 394
35 57 20
36 57 538
37 57 740
38 57 155
39 56 124
40 56 153
41 56 726
42 55 803
43 55 444
44 54 656
45 54 126
46 52 673
47 50 825
48 50 810
49 49 486
50 49 894
51 49 568
52 49 155
53 49 72
54 48 260
55 47 746
56 47 626
57 47 990
58 46 361
59 46 452
60 45 350
61 45 116
62 41 289
63 41 709
64 41 425
65 39 672
66 38 963
67 38 668
68 38 9
69 36 241
70 36 68
71 36 200
72 33 95
73 32 621
74 32 698
75 31 852
76 28 733
77 26 611
78 26 234
79 26 843
80 26 954
81 26 703
82 26 135
83 25 368
84 25 426
85 23 407
86 22 495
87 21 122
88 21 587
89 20 368
90 20 564
91 19 642
92 19 245
93 19 69
94 19 189
95 16 350
96 16 479
97 16 729
98 15 107
99 12 377
100 12 314
